solution status: optimal solution found
objective value:                     198842.433857144
d11(0,0)                                            1 	(obj:0)
d11(1,1)                                            1 	(obj:0)
d11(1,2)                                            1 	(obj:0)
d11(2,3)                                            1 	(obj:0)
d11(3,7)                                            1 	(obj:0)
d11(3,9)                                            1 	(obj:0)
d11(3,10)                                           1 	(obj:0)
d11(3,11)                                           1 	(obj:0)
d11(3,13)                                           1 	(obj:0)
d11(3,14)                                           1 	(obj:0)
d11(4,15)                                           1 	(obj:0)
d11(4,17)                                           1 	(obj:0)
d11(4,18)                                           1 	(obj:0)
d11(4,19)                                           1 	(obj:0)
d11(4,21)                                           1 	(obj:0)
d11(4,22)                                           1 	(obj:0)
d11(4,23)                                           1 	(obj:0)
d11(4,24)                                           1 	(obj:0)
d11(4,25)                                           1 	(obj:0)
d11(4,26)                                           1 	(obj:0)
d11(4,27)                                           1 	(obj:0)
d11(4,28)                                           1 	(obj:0)
d11(4,29)                                           1 	(obj:0)
d11(4,30)                                           1 	(obj:0)
d11(5,31)                                           1 	(obj:0)
d11(5,33)                                           1 	(obj:0)
d11(5,35)                                           1 	(obj:0)
d11(5,39)                                           1 	(obj:0)
d11(5,41)                                           1 	(obj:0)
d11(5,43)                                           1 	(obj:0)
d11(5,45)                                           1 	(obj:0)
d11(5,51)                                           1 	(obj:0)
d11(5,53)                                           1 	(obj:0)
d11(5,55)                                           1 	(obj:0)
d11(5,57)                                           1 	(obj:0)
d11(5,61)                                           1 	(obj:0)
d12(2,4)                                            1 	(obj:0)
d12(2,6)                                            1 	(obj:0)
d12(5,32)                                           1 	(obj:0)
d12(5,34)                                           1 	(obj:0)
d12(5,36)                                           1 	(obj:0)
d12(5,38)                                           1 	(obj:0)
d12(5,40)                                           1 	(obj:0)
d12(5,42)                                           1 	(obj:0)
d12(5,44)                                           1 	(obj:0)
d12(5,46)                                           1 	(obj:0)
d12(5,48)                                           1 	(obj:0)
d12(5,50)                                           1 	(obj:0)
d12(5,52)                                           1 	(obj:0)
d12(5,54)                                           1 	(obj:0)
d12(5,56)                                           1 	(obj:0)
d12(5,58)                                           1 	(obj:0)
d12(5,60)                                           1 	(obj:0)
d12(5,62)                                           1 	(obj:0)
d21(4,15)                                           1 	(obj:0)
d21(4,16)                                           1 	(obj:0)
d21(4,17)                                           1 	(obj:0)
d21(4,19)                                           1 	(obj:0)
d21(4,23)                                           1 	(obj:0)
d21(5,31)                                           1 	(obj:0)
d21(5,32)                                           1 	(obj:0)
d21(5,33)                                           1 	(obj:0)
d21(5,34)                                           1 	(obj:0)
d21(5,35)                                           1 	(obj:0)
d21(5,36)                                           1 	(obj:0)
d21(5,39)                                           1 	(obj:0)
d21(5,40)                                           1 	(obj:0)
d21(5,41)                                           1 	(obj:0)
d21(5,43)                                           1 	(obj:0)
d21(5,47)                                           1 	(obj:0)
d21(5,48)                                           1 	(obj:0)
d21(5,49)                                           1 	(obj:0)
d21(5,51)                                           1 	(obj:0)
d21(5,55)                                           1 	(obj:0)
y2(5,40)                             1385.48851144891 	(obj:0)
y2(5,42)                             1385.48851144891 	(obj:0)
y2(5,44)                             1385.48851144891 	(obj:0)
y2(5,46)                             1385.48851144891 	(obj:0)
y2(5,48)                             1385.48851144891 	(obj:0)
y2(5,50)                             1385.48851144891 	(obj:0)
y2(5,52)                             1385.48851144891 	(obj:0)
y2(5,54)                             1385.48851144891 	(obj:0)
y2(5,56)                             1385.48851144891 	(obj:0)
y2(5,58)                             1385.48851144891 	(obj:0)
y2(5,60)                             1385.48851144891 	(obj:0)
y2(5,62)                             1385.48851144891 	(obj:0)
STE(1,1)                                         7812 	(obj:0)
STE(0,0)                                        12600 	(obj:0)
STE(1,2)                             9470.24989888882 	(obj:0)
STE(2,3)                                         6804 	(obj:0)
STE(2,4)                             8120.21408587647 	(obj:0)
STE(2,5)                             8462.24989888882 	(obj:0)
STE(2,6)                             9778.46398476529 	(obj:0)
STE(3,7)                             4137.75010111115 	(obj:0)
STE(3,8)                                         5796 	(obj:0)
STE(3,9)                             5453.96418698762 	(obj:0)
STE(3,10)                            7112.21408587644 	(obj:0)
STE(3,11)                            5795.99999999997 	(obj:0)
STE(3,12)                            7454.24989888882 	(obj:0)
STE(3,13)                            7112.21408587644 	(obj:0)
STE(3,14)                            8770.46398476526 	(obj:0)
STE(4,15)                            1471.50020222234 	(obj:0)
STE(4,16)                            3129.75010111115 	(obj:0)
STE(4,17)                            3129.75010111118 	(obj:0)
STE(4,18)                                        4788 	(obj:0)
STE(4,19)                            2787.71428809881 	(obj:0)
STE(4,20)                            4445.96418698765 	(obj:0)
STE(4,21)                            4445.96418698762 	(obj:0)
STE(4,22)                            6104.21408587644 	(obj:0)
STE(4,23)                            3129.75010111115 	(obj:0)
STE(4,24)                            4787.99999999997 	(obj:0)
STE(4,25)                                        4788 	(obj:0)
STE(4,26)                            6446.24989888882 	(obj:0)
STE(4,27)                            4445.96418698762 	(obj:0)
STE(4,28)                            6104.21408587644 	(obj:0)
STE(4,29)                            6104.21408587644 	(obj:0)
STE(4,30)                            7762.46398476526 	(obj:0)
STE(5,31)                            463.500202222337 	(obj:0)
STE(5,32)                             1779.7142880988 	(obj:0)
STE(5,33)                            2121.75010111115 	(obj:0)
STE(5,34)                            3437.96418698762 	(obj:0)
STE(5,35)                            2121.75010111118 	(obj:0)
STE(5,36)                            3437.96418698765 	(obj:0)
STE(5,37)                                        3780 	(obj:0)
STE(5,38)                            5096.21408587647 	(obj:0)
STE(5,39)                            1779.71428809881 	(obj:0)
STE(5,40)                            3095.92837397527 	(obj:0)
STE(5,41)                            3437.96418698765 	(obj:0)
STE(5,42)                            4754.17827286411 	(obj:0)
STE(5,43)                            3437.96418698762 	(obj:0)
STE(5,44)                            4754.17827286409 	(obj:0)
STE(5,45)                            5096.21408587644 	(obj:0)
STE(5,46)                            6412.42817175291 	(obj:0)
STE(5,47)                            2121.75010111115 	(obj:0)
STE(5,48)                            3437.96418698762 	(obj:0)
STE(5,49)                            3779.99999999997 	(obj:0)
STE(5,50)                            5096.21408587644 	(obj:0)
STE(5,51)                                        3780 	(obj:0)
STE(5,52)                            5096.21408587647 	(obj:0)
STE(5,53)                            5438.24989888882 	(obj:0)
STE(5,54)                            6754.46398476529 	(obj:0)
STE(5,55)                            3437.96418698762 	(obj:0)
STE(5,56)                            4754.17827286409 	(obj:0)
STE(5,57)                            5096.21408587644 	(obj:0)
STE(5,58)                            6412.42817175291 	(obj:0)
STE(5,59)                            5096.21408587644 	(obj:0)
STE(5,60)                            6412.42817175291 	(obj:0)
STE(5,61)                            6754.46398476526 	(obj:0)
STE(5,62)                            8070.67807064172 	(obj:0)
AVE(1)                                   3216.9117036 	(obj:0)
WB(2)                                692.744255724451 	(obj:0)
AVE(2)                                   3366.1541945 	(obj:0)
AVE(3)                                   3515.3966854 	(obj:0)
AVE(4)                               3515.39406545826 	(obj:0)
WB(5)                                493.743920657721 	(obj:0)
AVE(5)                               3167.15385943327 	(obj:0)
WG(1)                                    3216.9117036 	(obj:10)
WG(2)                                2673.40993877555 	(obj:10)
WG(3)                                    3515.3966854 	(obj:10)
WG(4)                                3515.39406545826 	(obj:10)
WG(5)                                2673.40993877555 	(obj:10)
BG(1)                                2927.92680660412 	(obj:10)
BG(3)                                680.895813579591 	(obj:10)
BG(4)                                680.898433521306 	(obj:10)
y1(1,1)                                          3402 	(obj:0)
y1(1,2)                              1909.57509100006 	(obj:0)
y1(3,7)                              1492.42490899996 	(obj:0)
y1(3,9)                              1492.42490899996 	(obj:0)
y1(3,11)                             1492.42490899996 	(obj:0)
y1(3,13)                             1492.42490899996 	(obj:0)
y1(4,15)                             1492.42490899994 	(obj:0)
y1(4,17)                             1492.42490899994 	(obj:0)
y1(4,19)                             1492.42490899994 	(obj:0)
y1(4,21)                             1492.42490899994 	(obj:0)
y1(4,23)                             1492.42490899994 	(obj:0)
y1(4,25)                             1492.42490899994 	(obj:0)
y1(4,27)                             1492.42490899994 	(obj:0)
y1(4,29)                             1492.42490899994 	(obj:0)
y2(2,4)                              1385.48851144891 	(obj:0)
y2(2,6)                              1385.48851144891 	(obj:0)
y2(5,32)                             1385.48851144891 	(obj:0)
y2(5,34)                             1385.48851144891 	(obj:0)
y2(5,36)                             1385.48851144891 	(obj:0)
y2(5,38)                             1385.48851144891 	(obj:0)
